
  32    4
  10   10   10   10

   0   0   0   0   0   1 2 
   3   0   1   1   1   2 6 3 
   6   1   3   0   2   1 4 
   1   4   0   4   7   1 5 
   5   5   0   4   1   2 11 7 
   3   0   2   3   2   2 11 7 
   8   5   4   0   1   2 10 8 
   3   0   4   2   4   1 9 
   8   3   0   6   9   3 18 14 12 
   4   3   0   3   2   3 18 14 13 
   2   0   2   2   6   2 14 13 
   7   3   4   6   0   1 13 
   7   8   0   5   4   1 15 
   8   5   0   3   3   1 15 
   3   2   6   3   0   1 16 
   1   3   0   3   4   2 19 17 
   3   4   6   8   0   1 20 
   1   3   5   6   0   1 19 
  10   0   5   3   2   1 21 
   7   2   0   5   6   1 21 
   6   0   6   5   3   2 24 22 
   8   6   3   4   0   1 23 
   6   0   5   3   5   2 27 25 
   2   0   3   3   3   2 27 25 
   1   6   0   2   6   1 26 
   5   0   3   3   4   1 28 
  10   0   6   4   4   1 29 
   6   4   0   5   4   1 30 
   5   3   4   7   0   1 30 
   6   4   0   5   6   1 31 
   3   6   4   0   7   1 32
   0   0   0   0   0   0 
